h 2 -6 -5 0
h -6 5 0
h 3 1 0
h 2 5 0
h -8 -2 0
h -6 8 0
h 6 -2 0
h 6 13 0
h 18 6 3 0
h 11 9 0
h -3 -5 0
h -1 19 0
h -22 2 0
h 22 11 -23 0
h 25 -23 0
h -71 -23 0
h 77 86 79 0
h -77 0
h 64 9 0
h 24 0
h 23 86 0
h 6 -21 71 0
h -80 -79 0
h 64 -28 -86 0
h -6 -32 0
h 89 6 32 74 0
2 -89 0
h -86 18 0
h 90 -18 86 -25 0
h 91 -9 73 0
26 -91 0
h 94 -11 21 0
28 -94 0
h 95 25 0
9 -95 0
